Route #1: 2 41 14 13 38 9 36 22
Route #2: 17 30 23 40 43 29
Route #3: 6 25 3 12 39 34 4
Route #4: 1 35 18 20 16 11 10 26
Route #5: 24 5 21 32 42 37 33 19
Route #6: 7 28 27 15 8 31
Cost 937
Time 0.107337
